0 11 13 16 5 5 8 6 11 9 2 10 18
3 0 5 14 17 6 6 18 19 17 19 7 8
16 6 0 7 18 16 13 6 4 7 8 4 11
11 19 13 0 13 1 11 6 9 12 5 18 3
1 18 4 18 0 4 5 17 15 15 9 19 7
18 11 17 6 5 0 5 14 14 16 18 6 2
14 17 12 1 5 5 0 12 4 2 17 10 13
11 8 14 5 15 19 12 0 13 19 10 9 6
2 9 12 18 4 8 6 12 0 17 7 5 3
16 15 13 6 16 15 19 17 8 0 19 4 3
17 8 7 7 11 8 8 9 11 17 0 14 4
1 9 11 13 10 8 12 13 18 1 15 0 14
7 13 3 16 4 13 19 11 8 10 10 9 0
